76 85 
12 97 
60 55 
9 98 
57 10 
26 75 
65 54 
30 88 
24 10 
14 35 
44 64 
25 1 
42 13 
15 80 
28 30 
14 57 
67 26 
54 28 
33 15 
78 43 
25 4 
18 42 
59 1 
82 35 
11 96 
71 55 
12 48 
9 54 
61 76 
86 41 
58 53 
98 26 
31 4 
54 65 
19 84 
8 96 
89 78 
39 48 
79 21 
83 91 
70 6 
98 82 
54 59 
89 67 
87 75 
9 46 
80 59 
24 12 
64 30 
29 35 
